(set-logic QF_BV)
(declare-fun _substvar_152_ () (_ BitVec 79))
(declare-fun _substvar_161_ () (_ BitVec 79))
(declare-fun _substvar_214_ () Bool)
(declare-fun _substvar_155_ () (_ BitVec 79))
(declare-fun _substvar_135_ () (_ BitVec 79))
(assert (and true true true true true true true true true true true true (= _substvar_155_ (_ bv0 79)) (ite _substvar_214_ (= _substvar_161_ (_ bv0 79)) (= _substvar_161_ (concat (_ bv0 78) (bvxor (_ bv0 1) ((_ extract 69 69) _substvar_155_))))) (= _substvar_135_ (concat ((_ extract 77 0) _substvar_161_) (bvxor ((_ extract 78 78) _substvar_161_) ((_ extract 69 69) _substvar_161_)))) (= _substvar_152_ (concat ((_ extract 77 0) _substvar_135_) (_ bv0 1))) true true true true true true true true true true true true true true true true true true true (= (= _substvar_152_ (_ bv0 79)) false)))
(check-sat)
(exit)
